(set-info :smt-lib-version 2.6)
(set-logic UF)
(set-info :source |Benchmarks from the paper: "Extending Sledgehammer with SMT Solvers" by Jasmin Blanchette, Sascha Bohme, and Lawrence C. Paulson, CADE 2011.  Translated to SMT2 by Andrew Reynolds and Morgan Deters.|)
(set-info :category "industrial")
(set-info :status unsat)
(declare-sort S1 0)
(declare-sort S2 0)
(declare-sort S3 0)
(declare-sort S4 0)
(declare-sort S5 0)
(declare-sort S6 0)
(declare-sort S7 0)
(declare-sort S8 0)
(declare-sort S9 0)
(declare-sort S10 0)
(declare-sort S11 0)
(declare-fun f1 () S1)
(declare-fun f2 () S1)
(declare-fun f3 (S2 S3) S1)
(declare-fun f4 (S3) S2)
(declare-fun f5 () S3)
(declare-fun f6 () S3)
(declare-fun f7 (S4 S4) S1)
(declare-fun f8 (S5 S4) S4)
(declare-fun f9 (S6 S4) S5)
(declare-fun f10 () S6)
(declare-fun f11 () S4)
(declare-fun f12 (S7 S3) S4)
(declare-fun f13 () S7)
(declare-fun f14 () S6)
(declare-fun f15 () S5)
(declare-fun f16 () S5)
(declare-fun f17 () S5)
(declare-fun f18 () S4)
(declare-fun f19 () S4)
(declare-fun f20 (S4) S1)
(declare-fun f21 () S3)
(declare-fun f22 (S8 S3) S3)
(declare-fun f23 () S8)
(declare-fun f24 () S4)
(declare-fun f25 () S3)
(declare-fun f26 () S4)
(declare-fun f27 (S9 S3) S8)
(declare-fun f28 () S9)
(declare-fun f29 (S10 S3) S2)
(declare-fun f30 () S9)
(declare-fun f31 (S4) S1)
(declare-fun f32 (S11 S4) S3)
(declare-fun f33 () S11)
(assert (not (= f1 f2)))
(assert (not (= (f3 (f4 f5) f6) f1)))
(assert (= (f3 (f4 f5) f6) f1))
(assert (let ((?v_1 (f8 (f9 f10 f11) (f12 f13 f6))) (?v_0 (f8 (f9 f10 (f8 (f9 f14 (f8 f15 (f8 f16 (f8 f16 (f8 f17 f18))))) f19)) f11))) (not (=> (= (f7 ?v_1 ?v_0) f1) (not (= (f20 (f8 (f9 f14 ?v_0) ?v_1)) f1))))))
(assert (= (f3 (f4 f5) f21) f1))
(assert (= (f3 (f4 f5) f6) f1))
(assert (forall ((?v0 S3)) (=> (= (f3 (f4 ?v0) f5) f1) false)))
(assert (forall ((?v0 S3)) (not (= (f3 (f4 ?v0) f5) f1))))
(assert (forall ((?v0 S3)) (= (not (= ?v0 f5)) (= (f3 (f4 f5) ?v0) f1))))
(assert (forall ((?v0 S3)) (= (= (f3 (f4 ?v0) f5) f1) false)))
(assert (forall ((?v0 S3) (?v1 S3)) (=> (= (f3 (f4 ?v0) ?v1) f1) (not (= ?v1 f5)))))
(assert (forall ((?v0 S3)) (=> (=> (= ?v0 f5) false) (= (f3 (f4 f5) ?v0) f1))))
(assert (forall ((?v0 S3)) (let ((?v_0 (f4 f5))) (= (= (f3 ?v_0 (f22 f23 ?v0)) f1) (= (f3 ?v_0 ?v0) f1)))))
(assert (forall ((?v0 S3)) (= (= (f7 f24 (f12 f13 ?v0)) f1) (= (f3 (f4 f5) ?v0) f1))))
(assert (not (= (f7 f11 f24) f1)))
(assert (not (= (f3 (f4 f25) f5) f1)))
(assert (= (f7 f24 f11) f1))
(assert (= (f3 (f4 f5) f25) f1))
(assert (forall ((?v0 S4)) (not (= (f7 (f8 (f9 f14 ?v0) ?v0) f24) f1))))
(assert (forall ((?v0 S4) (?v1 S4) (?v2 S4)) (= (= (f7 (f8 (f9 f14 ?v0) ?v1) (f8 (f9 f14 ?v2) ?v1)) f1) (or (and (= (f7 f24 ?v1) f1) (= (f7 ?v0 ?v2) f1)) (and (= (f7 ?v1 f24) f1) (= (f7 ?v2 ?v0) f1))))))
(assert (forall ((?v0 S4) (?v1 S4) (?v2 S4)) (let ((?v_0 (f9 f14 ?v0))) (= (= (f7 (f8 ?v_0 ?v1) (f8 ?v_0 ?v2)) f1) (or (and (= (f7 f24 ?v0) f1) (= (f7 ?v1 ?v2) f1)) (and (= (f7 ?v0 f24) f1) (= (f7 ?v2 ?v1) f1)))))))
(assert (= (f7 f11 f26) f1))
(assert (let ((?v_1 (f8 (f9 f10 f11) (f12 f13 f6))) (?v_0 (f8 (f9 f10 (f8 (f9 f14 (f8 f15 (f8 f16 (f8 f16 (f8 f17 f18))))) f19)) f11))) (not (=> (= (f7 ?v_1 ?v_0) f1) (not (= (f20 (f8 (f9 f14 ?v_0) ?v_1)) f1))))))
(assert (= (f12 f13 f25) f11))
(assert (= (f22 f23 f25) f25))
(assert (forall ((?v0 S3) (?v1 S3)) (= (f12 f13 (f22 (f27 f28 ?v0) ?v1)) (f8 (f9 f14 (f12 f13 ?v0)) (f12 f13 ?v1)))))
(assert (forall ((?v0 S3) (?v1 S3)) (= (f22 f23 (f22 (f27 f28 ?v0) ?v1)) (f22 (f27 f28 (f22 f23 ?v0)) (f22 f23 ?v1)))))
(assert (forall ((?v0 S3) (?v1 S3)) (= (= (f22 f23 ?v0) (f22 f23 ?v1)) (= ?v0 ?v1))))
(assert (forall ((?v0 S3) (?v1 S3)) (= (= (f12 f13 ?v0) (f12 f13 ?v1)) (= ?v0 ?v1))))
(assert (forall ((?v0 S3) (?v1 S3)) (=> (= ?v0 (f22 (f27 f28 ?v0) ?v1)) (or (= ?v1 f25) (= ?v0 f5)))))
(assert (forall ((?v0 S3) (?v1 S3) (?v2 S3)) (= (= (f22 (f27 f28 ?v0) ?v1) (f22 (f27 f28 ?v2) ?v1)) (or (= ?v0 ?v2) (= ?v1 f5)))))
(assert (forall ((?v0 S3) (?v1 S3) (?v2 S3)) (let ((?v_0 (f27 f28 ?v0))) (= (= (f22 ?v_0 ?v1) (f22 ?v_0 ?v2)) (or (= ?v1 ?v2) (= ?v0 f5))))))
(assert (forall ((?v0 S3) (?v1 S3)) (= (= (f22 (f27 f28 ?v0) ?v1) f5) (or (= ?v0 f5) (= ?v1 f5)))))
(assert (forall ((?v0 S3)) (= (f22 (f27 f28 ?v0) f5) f5)))
(assert (forall ((?v0 S3)) (= (f22 (f27 f28 f5) ?v0) f5)))
(assert (forall ((?v0 S4) (?v1 S4)) (=> (= (f7 f11 ?v0) f1) (=> (= (f7 f11 ?v1) f1) (= (f7 f11 (f8 (f9 f14 ?v0) ?v1)) f1)))))
(assert (forall ((?v0 S3) (?v1 S3)) (let ((?v_0 (f4 f25))) (=> (= (f3 ?v_0 ?v0) f1) (=> (= (f3 ?v_0 ?v1) f1) (= (f3 ?v_0 (f22 (f27 f28 ?v0) ?v1)) f1))))))
(assert (forall ((?v0 S3) (?v1 S3) (?v2 S3)) (let ((?v_0 (f27 f28 ?v2))) (=> (= (f3 (f4 ?v0) ?v1) f1) (=> (= (f3 (f4 f5) ?v2) f1) (= (f3 (f4 (f22 ?v_0 ?v0)) (f22 ?v_0 ?v1)) f1))))))
(assert (forall ((?v0 S3) (?v1 S3) (?v2 S3)) (=> (= (f3 (f4 ?v0) ?v1) f1) (=> (= (f3 (f4 f5) ?v2) f1) (= (f3 (f4 (f22 (f27 f28 ?v0) ?v2)) (f22 (f27 f28 ?v1) ?v2)) f1)))))
(assert (forall ((?v0 S3) (?v1 S3) (?v2 S3)) (= (= (f3 (f4 (f22 (f27 f28 ?v0) ?v1)) (f22 (f27 f28 ?v2) ?v1)) f1) (and (= (f3 (f4 f5) ?v1) f1) (= (f3 (f4 ?v0) ?v2) f1)))))
(assert (forall ((?v0 S3) (?v1 S3) (?v2 S3)) (let ((?v_0 (f27 f28 ?v0))) (= (= (f3 (f4 (f22 ?v_0 ?v1)) (f22 ?v_0 ?v2)) f1) (and (= (f3 (f4 f5) ?v0) f1) (= (f3 (f4 ?v1) ?v2) f1))))))
(assert (forall ((?v0 S3) (?v1 S3)) (let ((?v_0 (f4 f5))) (= (= (f3 ?v_0 (f22 (f27 f28 ?v0) ?v1)) f1) (and (= (f3 ?v_0 ?v0) f1) (= (f3 ?v_0 ?v1) f1))))))
(assert (forall ((?v0 S3) (?v1 S3)) (=> (= (f22 (f27 f28 ?v0) ?v1) f5) (or (= ?v0 f5) (= ?v1 f5)))))
(assert (forall ((?v0 S4) (?v1 S4)) (=> (= (f8 (f9 f14 ?v0) ?v1) f24) (or (= ?v0 f24) (= ?v1 f24)))))
(assert (forall ((?v0 S3) (?v1 S3)) (=> (not (= ?v0 f5)) (=> (not (= ?v1 f5)) (not (= (f22 (f27 f28 ?v0) ?v1) f5))))))
(assert (forall ((?v0 S4) (?v1 S4)) (=> (not (= ?v0 f24)) (=> (not (= ?v1 f24)) (not (= (f8 (f9 f14 ?v0) ?v1) f24))))))
(assert (forall ((?v0 S4) (?v1 S4)) (= (= (f8 (f9 f14 ?v0) ?v1) f24) (or (= ?v0 f24) (= ?v1 f24)))))
(assert (forall ((?v0 S3)) (= (f22 (f27 f28 ?v0) f5) f5)))
(assert (forall ((?v0 S4)) (= (f8 (f9 f14 ?v0) f24) f24)))
(assert (forall ((?v0 S3)) (= (f22 (f27 f28 f5) ?v0) f5)))
(assert (forall ((?v0 S4)) (= (f8 (f9 f14 f24) ?v0) f24)))
(assert (not (= f24 f11)))
(assert (not (= f5 f25)))
(assert (not (= f11 f24)))
(assert (not (= f25 f5)))
(assert (forall ((?v0 S4) (?v1 S4)) (=> (not (= ?v0 ?v1)) (=> (=> (= (f7 ?v0 ?v1) f1) false) (=> (=> (= (f7 ?v1 ?v0) f1) false) false)))))
(assert (forall ((?v0 S3)) (not (= (f3 (f4 (f22 f23 ?v0)) f5) f1))))
(assert (forall ((?v0 S3)) (not (= (f7 (f12 f13 ?v0) f24) f1))))
(assert (= (f22 f23 f5) f5))
(assert (= (f12 f13 f5) f24))
(assert (forall ((?v0 S3) (?v1 S3)) (=> (= (f3 (f4 (f22 f23 ?v0)) (f22 f23 ?v1)) f1) (= (f3 (f4 ?v0) ?v1) f1))))
(assert (forall ((?v0 S3) (?v1 S3)) (=> (= (f7 (f12 f13 ?v0) (f12 f13 ?v1)) f1) (= (f3 (f4 ?v0) ?v1) f1))))
(assert (forall ((?v0 S3) (?v1 S3)) (=> (= (f3 (f4 ?v0) ?v1) f1) (= (f3 (f4 (f22 f23 ?v0)) (f22 f23 ?v1)) f1))))
(assert (forall ((?v0 S3) (?v1 S3)) (=> (= (f3 (f4 ?v0) ?v1) f1) (= (f7 (f12 f13 ?v0) (f12 f13 ?v1)) f1))))
(assert (forall ((?v0 S3) (?v1 S3)) (= (= (f3 (f4 (f22 f23 ?v0)) (f22 f23 ?v1)) f1) (= (f3 (f4 ?v0) ?v1) f1))))
(assert (forall ((?v0 S3) (?v1 S3)) (= (= (f7 (f12 f13 ?v0) (f12 f13 ?v1)) f1) (= (f3 (f4 ?v0) ?v1) f1))))
(assert (forall ((?v0 S3) (?v1 S3) (?v2 S10)) (let ((?v_0 (= (f3 (f29 ?v2 ?v1) ?v0) f1))) (=> (=> (= (f3 (f4 ?v0) ?v1) f1) ?v_0) (=> (=> (= ?v0 ?v1) ?v_0) (=> (=> (= (f3 (f4 ?v1) ?v0) f1) ?v_0) ?v_0))))))
(assert (forall ((?v0 S3) (?v1 S3)) (=> (= (f3 (f4 ?v0) ?v1) f1) (not (= ?v0 ?v1)))))
(assert (forall ((?v0 S3) (?v1 S3)) (=> (= (f3 (f4 ?v0) ?v1) f1) (not (= ?v1 ?v0)))))
(assert (forall ((?v0 S3)) (=> (= (f3 (f4 ?v0) ?v0) f1) false)))
(assert (forall ((?v0 S3) (?v1 S3)) (=> (not (= ?v0 ?v1)) (=> (=> (= (f3 (f4 ?v0) ?v1) f1) false) (=> (=> (= (f3 (f4 ?v1) ?v0) f1) false) false)))))
(assert (forall ((?v0 S3) (?v1 S3)) (= (not (= ?v0 ?v1)) (or (= (f3 (f4 ?v0) ?v1) f1) (= (f3 (f4 ?v1) ?v0) f1)))))
(assert (forall ((?v0 S3)) (not (= (f3 (f4 ?v0) ?v0) f1))))
(assert (forall ((?v0 S4) (?v1 S4) (?v2 S4)) (let ((?v_0 (f9 f14 ?v2))) (=> (= (f7 ?v0 ?v1) f1) (=> (= (f7 ?v2 f24) f1) (= (f7 (f8 ?v_0 ?v1) (f8 ?v_0 ?v0)) f1))))))
(assert (forall ((?v0 S4) (?v1 S4) (?v2 S4)) (=> (= (f7 ?v0 ?v1) f1) (=> (= (f7 ?v2 f24) f1) (= (f7 (f8 (f9 f14 ?v1) ?v2) (f8 (f9 f14 ?v0) ?v2)) f1)))))
(assert (forall ((?v0 S3) (?v1 S3) (?v2 S3)) (let ((?v_0 (f27 f28 ?v2))) (=> (= (f3 (f4 ?v0) ?v1) f1) (=> (= (f3 (f4 f5) ?v2) f1) (= (f3 (f4 (f22 ?v_0 ?v0)) (f22 ?v_0 ?v1)) f1))))))
(assert (forall ((?v0 S4) (?v1 S4) (?v2 S4)) (let ((?v_0 (f9 f14 ?v2))) (=> (= (f7 ?v0 ?v1) f1) (=> (= (f7 f24 ?v2) f1) (= (f7 (f8 ?v_0 ?v0) (f8 ?v_0 ?v1)) f1))))))
(assert (forall ((?v0 S3) (?v1 S3) (?v2 S3)) (let ((?v_0 (f27 f28 ?v2))) (=> (= (f3 (f4 ?v0) ?v1) f1) (=> (= (f3 (f4 f5) ?v2) f1) (= (f3 (f4 (f22 ?v_0 ?v0)) (f22 ?v_0 ?v1)) f1))))))
(assert (forall ((?v0 S4) (?v1 S4) (?v2 S4)) (let ((?v_0 (f9 f14 ?v2))) (=> (= (f7 ?v0 ?v1) f1) (=> (= (f7 f24 ?v2) f1) (= (f7 (f8 ?v_0 ?v0) (f8 ?v_0 ?v1)) f1))))))
(assert (forall ((?v0 S3) (?v1 S3) (?v2 S3)) (=> (= (f3 (f4 ?v0) ?v1) f1) (=> (= (f3 (f4 f5) ?v2) f1) (= (f3 (f4 (f22 (f27 f28 ?v0) ?v2)) (f22 (f27 f28 ?v1) ?v2)) f1)))))
(assert (forall ((?v0 S4) (?v1 S4) (?v2 S4)) (=> (= (f7 ?v0 ?v1) f1) (=> (= (f7 f24 ?v2) f1) (= (f7 (f8 (f9 f14 ?v0) ?v2) (f8 (f9 f14 ?v1) ?v2)) f1)))))
(assert (forall ((?v0 S4) (?v1 S4)) (=> (= (f7 ?v0 f24) f1) (=> (= (f7 ?v1 f24) f1) (= (f7 f24 (f8 (f9 f14 ?v0) ?v1)) f1)))))
(assert (forall ((?v0 S3) (?v1 S3)) (=> (= (f3 (f4 ?v0) f5) f1) (=> (= (f3 (f4 f5) ?v1) f1) (= (f3 (f4 (f22 (f27 f28 ?v0) ?v1)) f5) f1)))))
(assert (forall ((?v0 S4) (?v1 S4)) (=> (= (f7 ?v0 f24) f1) (=> (= (f7 f24 ?v1) f1) (= (f7 (f8 (f9 f14 ?v0) ?v1) f24) f1)))))
(assert (forall ((?v0 S4) (?v1 S4) (?v2 S4)) (let ((?v_0 (f9 f14 ?v0))) (=> (= (f7 ?v0 f24) f1) (= (= (f7 (f8 ?v_0 ?v1) (f8 ?v_0 ?v2)) f1) (= (f7 ?v2 ?v1) f1))))))
(assert (forall ((?v0 S3) (?v1 S3)) (let ((?v_0 (f4 f5))) (=> (= (f3 ?v_0 (f22 (f27 f28 ?v0) ?v1)) f1) (=> (= (f3 ?v_0 ?v1) f1) (= (f3 ?v_0 ?v0) f1))))))
(assert (forall ((?v0 S4) (?v1 S4)) (=> (= (f7 f24 (f8 (f9 f14 ?v0) ?v1)) f1) (=> (= (f7 f24 ?v1) f1) (= (f7 f24 ?v0) f1)))))
(assert (forall ((?v0 S3) (?v1 S3)) (let ((?v_0 (f4 f5))) (=> (= (f3 ?v_0 (f22 (f27 f28 ?v0) ?v1)) f1) (=> (= (f3 ?v_0 ?v0) f1) (= (f3 ?v_0 ?v1) f1))))))
(assert (forall ((?v0 S4) (?v1 S4)) (=> (= (f7 f24 (f8 (f9 f14 ?v0) ?v1)) f1) (=> (= (f7 f24 ?v0) f1) (= (f7 f24 ?v1) f1)))))
(assert (forall ((?v0 S3) (?v1 S3)) (=> (= (f3 (f4 f5) ?v0) f1) (=> (= (f3 (f4 ?v1) f5) f1) (= (f3 (f4 (f22 (f27 f28 ?v1) ?v0)) f5) f1)))))
(assert (forall ((?v0 S4) (?v1 S4)) (=> (= (f7 f24 ?v0) f1) (=> (= (f7 ?v1 f24) f1) (= (f7 (f8 (f9 f14 ?v1) ?v0) f24) f1)))))
(assert (forall ((?v0 S3) (?v1 S3)) (=> (= (f3 (f4 f5) ?v0) f1) (=> (= (f3 (f4 ?v1) f5) f1) (= (f3 (f4 (f22 (f27 f28 ?v0) ?v1)) f5) f1)))))
(assert (forall ((?v0 S4) (?v1 S4)) (=> (= (f7 f24 ?v0) f1) (=> (= (f7 ?v1 f24) f1) (= (f7 (f8 (f9 f14 ?v0) ?v1) f24) f1)))))
(assert (forall ((?v0 S3) (?v1 S3)) (let ((?v_0 (f4 f5))) (=> (= (f3 ?v_0 ?v0) f1) (=> (= (f3 ?v_0 ?v1) f1) (= (f3 ?v_0 (f22 (f27 f28 ?v0) ?v1)) f1))))))
(assert (forall ((?v0 S4) (?v1 S4)) (=> (= (f7 f24 ?v0) f1) (=> (= (f7 f24 ?v1) f1) (= (f7 f24 (f8 (f9 f14 ?v0) ?v1)) f1)))))
(assert (forall ((?v0 S4) (?v1 S4) (?v2 S4)) (let ((?v_0 (f9 f14 ?v0))) (=> (= (f7 f24 ?v0) f1) (= (= (f7 (f8 ?v_0 ?v1) (f8 ?v_0 ?v2)) f1) (= (f7 ?v1 ?v2) f1))))))
(assert (= (f7 f24 (f8 (f9 f10 f11) f11)) f1))
(assert (= (f3 (f4 f5) (f22 (f27 f30 f25) f25)) f1))
(assert (forall ((?v0 S4)) (= (f7 ?v0 (f8 (f9 f10 ?v0) f11)) f1)))
(assert (forall ((?v0 S3)) (= (f3 (f4 ?v0) (f22 (f27 f30 ?v0) f25)) f1)))
(assert (forall ((?v0 S4) (?v1 S4) (?v2 S4)) (=> (= (f7 f24 ?v0) f1) (=> (= (f7 ?v1 ?v2) f1) (= (f7 ?v1 (f8 (f9 f10 ?v0) ?v2)) f1)))))
(assert (forall ((?v0 S3) (?v1 S3) (?v2 S3)) (let ((?v_0 (f4 ?v1))) (=> (= (f3 (f4 f5) ?v0) f1) (=> (= (f3 ?v_0 ?v2) f1) (= (f3 ?v_0 (f22 (f27 f30 ?v0) ?v2)) f1))))))
(assert (forall ((?v0 S3)) (= (= (f7 f24 (f12 f13 ?v0)) f1) (= (f3 (f4 f5) ?v0) f1))))
(assert (forall ((?v0 S3) (?v1 S3) (?v2 S3)) (let ((?v_0 (f27 f28 ?v0))) (=> (= (f3 (f4 f5) ?v0) f1) (=> (= (f22 ?v_0 ?v1) (f22 ?v_0 ?v2)) (= ?v1 ?v2))))))
(assert (forall ((?v0 S3) (?v1 S3) (?v2 S3)) (let ((?v_0 (f27 f28 ?v0))) (=> (= (f3 (f4 f5) ?v0) f1) (= (= (f3 (f4 (f22 ?v_0 ?v1)) (f22 ?v_0 ?v2)) f1) (= (f3 (f4 ?v1) ?v2) f1))))))
(assert (forall ((?v0 S3) (?v1 S3) (?v2 S3)) (let ((?v_0 (f27 f28 ?v0))) (=> (= (f3 (f4 f5) ?v0) f1) (= (= (f22 ?v_0 ?v1) (f22 ?v_0 ?v2)) (= ?v1 ?v2))))))
(assert (forall ((?v0 S4) (?v1 S4) (?v2 S3)) (let ((?v_0 (f9 f14 (f12 f13 ?v2)))) (=> (= (f7 ?v0 ?v1) f1) (=> (= (f3 (f4 f5) ?v2) f1) (= (f7 (f8 ?v_0 ?v0) (f8 ?v_0 ?v1)) f1))))))
(assert (forall ((?v0 S4)) (= (f8 (f9 f14 f11) ?v0) ?v0)))
(assert (forall ((?v0 S3)) (= (f22 (f27 f28 f25) ?v0) ?v0)))
(assert (forall ((?v0 S4)) (= (f8 (f9 f14 f11) ?v0) ?v0)))
(assert (forall ((?v0 S3)) (= (f22 (f27 f28 f25) ?v0) ?v0)))
(assert (not (= (f20 (f8 (f9 f14 (f8 (f9 f10 (f8 (f9 f14 (f8 f15 (f8 f16 (f8 f16 (f8 f17 f18))))) f19)) f11)) (f8 (f9 f10 f11) (f12 f13 f5)))) f1)))
(assert (= (f7 f24 (f8 (f9 f10 (f8 (f9 f14 (f8 f15 (f8 f16 (f8 f16 (f8 f17 f18))))) f19)) f11)) f1))
(assert (= (f7 f26 (f8 (f9 f10 (f8 (f9 f14 (f8 f15 (f8 f16 (f8 f16 (f8 f17 f18))))) f19)) f11)) f1))
(assert (= (f20 (f8 (f9 f14 (f8 (f9 f10 (f8 (f9 f14 (f8 f15 (f8 f16 (f8 f16 (f8 f17 f18))))) f19)) f11)) f26)) f1))
(assert (= (f31 (f8 (f9 f10 (f8 (f9 f14 (f8 f15 (f8 f16 (f8 f16 (f8 f17 f18))))) f19)) f11)) f1))
(assert (not (= f24 f11)))
(assert (forall ((?v0 S3)) (not (= (f7 (f12 f13 ?v0) f24) f1))))
(assert (forall ((?v0 S4)) (not (= (f8 (f9 f10 (f8 (f9 f10 f11) ?v0)) ?v0) f24))))
(assert (= f18 f24))
(assert (= (f7 f24 f11) f1))
(assert (= f24 (f8 f15 f18)))
(assert (= f11 (f8 f15 (f8 f17 f18))))
(assert (= (f12 f13 f25) f11))
(assert (forall ((?v0 S4)) (= (f8 f17 ?v0) (f8 (f9 f10 (f8 (f9 f10 f11) ?v0)) ?v0))))
(assert (forall ((?v0 S3) (?v1 S3)) (= (f12 f13 (f22 (f27 f28 ?v0) ?v1)) (f8 (f9 f14 (f12 f13 ?v0)) (f12 f13 ?v1)))))
(assert (= (= (f7 f18 f18) f1) false))
(assert (= (= (f7 f18 f24) f1) false))
(assert (= (f8 (f9 f10 f11) f11) (f8 f15 (f8 f16 (f8 f17 f18)))))
(assert (= (f8 (f9 f10 f11) f11) (f8 f15 (f8 f16 (f8 f17 f18)))))
(assert (= (f22 (f27 f30 f25) f25) (f32 f33 (f8 f16 (f8 f17 f18)))))
(assert (forall ((?v0 S4)) (= (f8 (f9 f14 f18) ?v0) f18)))
(assert (forall ((?v0 S4)) (= (f8 (f9 f10 f24) ?v0) ?v0)))
(assert (forall ((?v0 S3)) (= (f22 (f27 f28 f25) ?v0) ?v0)))
(assert (forall ((?v0 S4)) (= (f8 (f9 f14 f11) ?v0) ?v0)))
(assert (forall ((?v0 S4)) (= (f8 (f9 f10 f11) (f8 f15 ?v0)) (f8 f15 (f8 (f9 f10 (f8 f17 f18)) ?v0)))))
(assert (forall ((?v0 S4)) (= (= (f7 f18 (f8 f16 ?v0)) f1) (= (f7 f18 ?v0) f1))))
(assert (forall ((?v0 S3) (?v1 S3)) (= (= f25 (f22 (f27 f28 ?v0) ?v1)) (and (= ?v0 f25) (= ?v1 f25)))))
(assert (forall ((?v0 S4)) (= (f8 (f9 f10 ?v0) f24) ?v0)))
(assert (forall ((?v0 S3)) (= (f22 (f27 f28 ?v0) f25) ?v0)))
(assert (forall ((?v0 S4)) (= (f8 (f9 f14 ?v0) f11) ?v0)))
(assert (forall ((?v0 S3) (?v1 S3)) (= (f22 (f27 f28 ?v0) ?v1) (f22 (f27 f28 ?v1) ?v0))))
(assert (forall ((?v0 S4) (?v1 S4)) (= (f8 (f9 f14 ?v0) ?v1) (f8 (f9 f14 ?v1) ?v0))))
(assert (forall ((?v0 S4) (?v1 S4)) (or (= (f7 ?v0 ?v1) f1) (or (= ?v0 ?v1) (= (f7 ?v1 ?v0) f1)))))
(assert (forall ((?v0 S4)) (= (f8 (f9 f14 ?v0) (f8 f15 (f8 f16 (f8 f17 f18)))) (f8 (f9 f10 ?v0) ?v0))))
(assert (forall ((?v0 S4)) (= (f8 (f9 f14 ?v0) (f8 f15 (f8 f16 (f8 f17 f18)))) (f8 (f9 f10 ?v0) ?v0))))
(assert (forall ((?v0 S3)) (= (f22 (f27 f28 ?v0) (f32 f33 (f8 f16 (f8 f17 f18)))) (f22 (f27 f30 ?v0) ?v0))))
(assert (forall ((?v0 S4) (?v1 S4)) (= (= (f7 ?v0 (f8 (f9 f10 ?v1) f11)) f1) (or (= (f7 ?v0 ?v1) f1) (= ?v0 ?v1)))))
(assert (forall ((?v0 S3) (?v1 S3) (?v2 S3)) (let ((?v_0 (f27 f28 ?v0))) (= (f22 ?v_0 (f22 (f27 f30 ?v1) ?v2)) (f22 (f27 f30 (f22 ?v_0 ?v1)) (f22 ?v_0 ?v2))))))
(assert (forall ((?v0 S4) (?v1 S4) (?v2 S4)) (let ((?v_0 (f9 f14 ?v0))) (= (f8 ?v_0 (f8 (f9 f10 ?v1) ?v2)) (f8 (f9 f10 (f8 ?v_0 ?v1)) (f8 ?v_0 ?v2))))))
(assert (forall ((?v0 S4)) (= (f8 (f9 f10 (f8 f15 ?v0)) f11) (f8 f15 (f8 (f9 f10 ?v0) (f8 f17 f18))))))
(assert (forall ((?v0 S4)) (= (= (f7 (f8 f16 ?v0) f18) f1) (= (f7 ?v0 f18) f1))))
(assert (forall ((?v0 S4)) (= (= (f7 (f8 f16 ?v0) f24) f1) (= (f7 ?v0 f24) f1))))
(assert (forall ((?v0 S4)) (= (= (f7 (f8 f17 ?v0) f18) f1) (= (f7 ?v0 f18) f1))))
(assert (forall ((?v0 S4)) (= (= (f7 (f8 f17 ?v0) f24) f1) (= (f7 ?v0 f24) f1))))
(assert (forall ((?v0 S4) (?v1 S4)) (= (f8 (f9 f14 (f8 f16 ?v0)) ?v1) (f8 f16 (f8 (f9 f14 ?v0) ?v1)))))
(assert (forall ((?v0 S4) (?v1 S4)) (= (f8 (f9 f14 (f8 f17 ?v0)) ?v1) (f8 (f9 f10 (f8 f16 (f8 (f9 f14 ?v0) ?v1))) ?v1))))
(assert (forall ((?v0 S3) (?v1 S3)) (= (f8 (f9 f10 (f12 f13 ?v0)) (f12 f13 ?v1)) (f12 f13 (f22 (f27 f30 ?v0) ?v1)))))
(assert (forall ((?v0 S4) (?v1 S4)) (= (f8 (f9 f14 (f8 f15 ?v0)) (f8 f15 ?v1)) (f8 f15 (f8 (f9 f14 ?v0) ?v1)))))
(assert (forall ((?v0 S3) (?v1 S3)) (= (f8 (f9 f14 (f12 f13 ?v0)) (f12 f13 ?v1)) (f12 f13 (f22 (f27 f28 ?v0) ?v1)))))
(assert (forall ((?v0 S3) (?v1 S3)) (= (= (f12 f13 ?v0) (f12 f13 ?v1)) (= ?v0 ?v1))))
(assert (forall ((?v0 S4) (?v1 S4)) (= (= (f7 (f8 f16 ?v0) (f8 f16 ?v1)) f1) (= (f7 ?v0 ?v1) f1))))
(assert (forall ((?v0 S4) (?v1 S4)) (= (= (f7 (f8 f16 ?v0) (f8 f16 ?v1)) f1) (= (f7 ?v0 ?v1) f1))))
(assert (forall ((?v0 S4) (?v1 S4)) (= (= (f7 (f8 f17 ?v0) (f8 f16 ?v1)) f1) (= (f7 ?v0 ?v1) f1))))
(assert (forall ((?v0 S4) (?v1 S4)) (= (= (f7 (f8 f17 ?v0) (f8 f17 ?v1)) f1) (= (f7 ?v0 ?v1) f1))))
(assert (forall ((?v0 S4) (?v1 S4)) (= (= (f7 (f8 f17 ?v0) (f8 f16 ?v1)) f1) (= (f7 ?v0 ?v1) f1))))
(assert (forall ((?v0 S4) (?v1 S4)) (= (= (f7 (f8 f17 ?v0) (f8 f17 ?v1)) f1) (= (f7 ?v0 ?v1) f1))))
(assert (forall ((?v0 S4) (?v1 S4)) (= (= (f7 (f8 f15 ?v0) (f8 f15 ?v1)) f1) (= (f7 ?v0 ?v1) f1))))
(assert (forall ((?v0 S3) (?v1 S3) (?v2 S4)) (= (f8 (f9 f10 (f12 f13 ?v0)) (f8 (f9 f10 (f12 f13 ?v1)) ?v2)) (f8 (f9 f10 (f12 f13 (f22 (f27 f30 ?v0) ?v1))) ?v2))))
(assert (forall ((?v0 S4)) (= (f8 (f9 f14 (f8 f15 (f8 f16 (f8 f17 f18)))) ?v0) (f8 (f9 f10 ?v0) ?v0))))
(assert (forall ((?v0 S4)) (= (f8 (f9 f14 (f8 f15 (f8 f16 (f8 f17 f18)))) ?v0) (f8 (f9 f10 ?v0) ?v0))))
(assert (forall ((?v0 S3)) (= (f22 (f27 f28 (f32 f33 (f8 f16 (f8 f17 f18)))) ?v0) (f22 (f27 f30 ?v0) ?v0))))
(assert (forall ((?v0 S3) (?v1 S3)) (= (= (f22 (f27 f28 ?v0) ?v1) f25) (and (= ?v0 f25) (= ?v1 f25)))))
(assert (forall ((?v0 S3) (?v1 S3) (?v2 S3)) (let ((?v_0 (f27 f28 ?v0))) (= (f22 (f27 f28 (f22 ?v_0 ?v1)) ?v2) (f22 ?v_0 (f22 (f27 f28 ?v1) ?v2))))))
(assert (forall ((?v0 S4) (?v1 S4) (?v2 S4)) (let ((?v_0 (f9 f14 ?v0))) (= (f8 (f9 f14 (f8 ?v_0 ?v1)) ?v2) (f8 ?v_0 (f8 (f9 f14 ?v1) ?v2))))))
(assert (forall ((?v0 S3) (?v1 S3) (?v2 S3)) (= (f22 (f27 f28 (f22 (f27 f30 ?v0) ?v1)) ?v2) (f22 (f27 f30 (f22 (f27 f28 ?v0) ?v2)) (f22 (f27 f28 ?v1) ?v2)))))
(assert (forall ((?v0 S4) (?v1 S4) (?v2 S4)) (= (f8 (f9 f14 (f8 (f9 f10 ?v0) ?v1)) ?v2) (f8 (f9 f10 (f8 (f9 f14 ?v0) ?v2)) (f8 (f9 f14 ?v1) ?v2)))))
(assert (forall ((?v0 S3) (?v1 S3) (?v2 S3) (?v3 S3)) (= (f22 (f27 f30 (f22 (f27 f28 ?v0) ?v1)) (f22 (f27 f30 (f22 (f27 f28 ?v2) ?v1)) ?v3)) (f22 (f27 f30 (f22 (f27 f28 (f22 (f27 f30 ?v0) ?v2)) ?v1)) ?v3))))
(assert (forall ((?v0 S4)) (= (= (f7 (f8 (f9 f10 (f8 (f9 f10 f11) ?v0)) ?v0) f24) f1) (= (f7 ?v0 f24) f1))))
(assert (forall ((?v0 S4) (?v1 S4)) (=> (= (f7 f24 ?v0) f1) (= (= (f8 (f9 f14 ?v0) ?v1) f11) (and (= ?v0 f11) (= ?v1 f11))))))
(assert (forall ((?v0 S4) (?v1 S4) (?v2 S4)) (=> (= (f7 ?v0 ?v1) f1) (= (f7 (f8 (f9 f10 ?v0) ?v2) (f8 (f9 f10 ?v1) ?v2)) f1))))
(assert (forall ((?v0 S4) (?v1 S4) (?v2 S4)) (let ((?v_0 (f9 f14 ?v2))) (=> (= (f7 ?v0 ?v1) f1) (=> (= (f7 f24 ?v2) f1) (= (f7 (f8 ?v_0 ?v0) (f8 ?v_0 ?v1)) f1))))))
(assert (forall ((?v0 S4) (?v1 S4) (?v2 S4)) (=> (= (f8 (f9 f10 ?v0) ?v1) (f8 (f9 f10 ?v2) ?v1)) (= ?v0 ?v2))))
(assert (forall ((?v0 S3) (?v1 S3) (?v2 S3)) (=> (= (f22 (f27 f30 ?v0) ?v1) (f22 (f27 f30 ?v2) ?v1)) (= ?v0 ?v2))))
(assert (forall ((?v0 S4) (?v1 S4) (?v2 S4)) (let ((?v_0 (f9 f10 ?v0))) (=> (= (f8 ?v_0 ?v1) (f8 ?v_0 ?v2)) (= ?v1 ?v2)))))
(assert (forall ((?v0 S3) (?v1 S3) (?v2 S3)) (let ((?v_0 (f27 f30 ?v0))) (=> (= (f22 ?v_0 ?v1) (f22 ?v_0 ?v2)) (= ?v1 ?v2)))))
(assert (forall ((?v0 S4) (?v1 S4) (?v2 S4)) (let ((?v_0 (f9 f10 ?v0))) (=> (= (f8 ?v_0 ?v1) (f8 ?v_0 ?v2)) (= ?v1 ?v2)))))
(assert (forall ((?v0 S3) (?v1 S3) (?v2 S3)) (let ((?v_0 (f27 f30 ?v0))) (=> (= (f22 ?v_0 ?v1) (f22 ?v_0 ?v2)) (= ?v1 ?v2)))))
(assert (forall ((?v0 S4) (?v1 S4) (?v2 S4) (?v3 S4)) (let ((?v_0 (f9 f10 ?v0))) (= (f8 (f9 f10 (f8 ?v_0 ?v1)) (f8 (f9 f10 ?v2) ?v3)) (f8 (f9 f10 (f8 ?v_0 ?v2)) (f8 (f9 f10 ?v1) ?v3))))))
(assert (forall ((?v0 S3) (?v1 S3) (?v2 S3) (?v3 S3)) (let ((?v_0 (f27 f30 ?v0))) (= (f22 (f27 f30 (f22 ?v_0 ?v1)) (f22 (f27 f30 ?v2) ?v3)) (f22 (f27 f30 (f22 ?v_0 ?v2)) (f22 (f27 f30 ?v1) ?v3))))))
(assert (forall ((?v0 S4) (?v1 S4) (?v2 S4)) (= (= (f8 (f9 f10 ?v0) ?v1) (f8 (f9 f10 ?v2) ?v1)) (= ?v0 ?v2))))
(assert (forall ((?v0 S3) (?v1 S3) (?v2 S3)) (= (= (f22 (f27 f30 ?v0) ?v1) (f22 (f27 f30 ?v2) ?v1)) (= ?v0 ?v2))))
(assert (forall ((?v0 S4) (?v1 S4) (?v2 S4)) (let ((?v_0 (f9 f10 ?v0))) (= (= (f8 ?v_0 ?v1) (f8 ?v_0 ?v2)) (= ?v1 ?v2)))))
(assert (forall ((?v0 S3) (?v1 S3) (?v2 S3)) (let ((?v_0 (f27 f30 ?v0))) (= (= (f22 ?v_0 ?v1) (f22 ?v_0 ?v2)) (= ?v1 ?v2)))))
(assert (forall ((?v0 S4) (?v1 S4) (?v2 S4)) (let ((?v_0 (f9 f10 ?v0))) (= (f8 (f9 f10 (f8 ?v_0 ?v1)) ?v2) (f8 (f9 f10 (f8 ?v_0 ?v2)) ?v1)))))
(assert (forall ((?v0 S3) (?v1 S3) (?v2 S3)) (let ((?v_0 (f27 f30 ?v0))) (= (f22 (f27 f30 (f22 ?v_0 ?v1)) ?v2) (f22 (f27 f30 (f22 ?v_0 ?v2)) ?v1)))))
(assert (forall ((?v0 S4) (?v1 S4) (?v2 S4)) (let ((?v_0 (f9 f10 ?v0))) (= (f8 (f9 f10 (f8 ?v_0 ?v1)) ?v2) (f8 ?v_0 (f8 (f9 f10 ?v1) ?v2))))))
(assert (forall ((?v0 S4) (?v1 S4) (?v2 S4)) (let ((?v_0 (f9 f10 ?v0))) (= (f8 (f9 f10 (f8 ?v_0 ?v1)) ?v2) (f8 ?v_0 (f8 (f9 f10 ?v1) ?v2))))))
(assert (forall ((?v0 S3) (?v1 S3) (?v2 S3)) (let ((?v_0 (f27 f30 ?v0))) (= (f22 (f27 f30 (f22 ?v_0 ?v1)) ?v2) (f22 ?v_0 (f22 (f27 f30 ?v1) ?v2))))))
(assert (forall ((?v0 S4) (?v1 S4) (?v2 S4)) (let ((?v_0 (f9 f10 ?v0))) (= (f8 (f9 f10 (f8 ?v_0 ?v1)) ?v2) (f8 ?v_0 (f8 (f9 f10 ?v1) ?v2))))))
(assert (forall ((?v0 S3) (?v1 S3) (?v2 S3)) (let ((?v_0 (f27 f30 ?v0))) (= (f22 (f27 f30 (f22 ?v_0 ?v1)) ?v2) (f22 ?v_0 (f22 (f27 f30 ?v1) ?v2))))))
(assert (forall ((?v0 S4) (?v1 S4) (?v2 S4)) (= (f8 (f9 f10 (f8 f15 ?v0)) (f8 (f9 f10 (f8 f15 ?v1)) ?v2)) (f8 (f9 f10 (f8 f15 (f8 (f9 f10 ?v0) ?v1))) ?v2))))
(assert (forall ((?v0 S4) (?v1 S4)) (= (= (f8 f15 ?v0) (f8 f15 ?v1)) (= ?v0 ?v1))))
(assert (forall ((?v0 S4) (?v1 S4)) (= (= (f8 f17 ?v0) (f8 f17 ?v1)) (= ?v0 ?v1))))
(assert (forall ((?v0 S4) (?v1 S4)) (= (= (f8 f16 ?v0) (f8 f16 ?v1)) (= ?v0 ?v1))))
(assert (forall ((?v0 S4) (?v1 S4)) (= (f8 (f9 f10 (f8 f15 ?v0)) (f8 f15 ?v1)) (f8 f15 (f8 (f9 f10 ?v0) ?v1)))))
(assert (forall ((?v0 S4) (?v1 S4)) (= (f8 (f9 f10 (f8 f15 ?v0)) (f8 f15 ?v1)) (f8 f15 (f8 (f9 f10 ?v0) ?v1)))))
(assert (forall ((?v0 S4) (?v1 S4)) (= (f8 (f9 f10 (f8 f17 ?v0)) (f8 f16 ?v1)) (f8 f17 (f8 (f9 f10 ?v0) ?v1)))))
(assert (forall ((?v0 S4) (?v1 S4)) (= (f8 (f9 f10 (f8 f16 ?v0)) (f8 f17 ?v1)) (f8 f17 (f8 (f9 f10 ?v0) ?v1)))))
(assert (forall ((?v0 S4) (?v1 S4)) (= (f8 (f9 f10 (f8 f16 ?v0)) (f8 f16 ?v1)) (f8 f16 (f8 (f9 f10 ?v0) ?v1)))))
(assert (forall ((?v0 S4) (?v1 S4)) (= (= (f8 f17 ?v0) (f8 f16 ?v1)) false)))
(assert (forall ((?v0 S4) (?v1 S4)) (= (= (f8 f16 ?v0) (f8 f17 ?v1)) false)))
(assert (forall ((?v0 S4) (?v1 S3)) (let ((?v_0 (f32 f33 ?v0))) (= (= ?v_0 ?v1) (= ?v1 ?v_0)))))
(assert (forall ((?v0 S4) (?v1 S4)) (let ((?v_0 (f8 f15 ?v0))) (= (= ?v_0 ?v1) (= ?v1 ?v_0)))))
(assert (forall ((?v0 S4)) (= (= (f8 f16 ?v0) f18) (= ?v0 f18))))
(assert (forall ((?v0 S4)) (= (= (f8 f17 ?v0) f18) false)))
(assert (forall ((?v0 S4)) (= (f8 (f9 f10 (f8 f15 f18)) ?v0) ?v0)))
(assert (forall ((?v0 S4) (?v1 S4) (?v2 S4)) (let ((?v_0 (f9 f10 ?v0))) (= (f8 ?v_0 (f8 (f9 f10 ?v1) ?v2)) (f8 (f9 f10 (f8 ?v_0 ?v1)) ?v2)))))
(assert (forall ((?v0 S3) (?v1 S3) (?v2 S3)) (let ((?v_0 (f27 f30 ?v0))) (= (f22 ?v_0 (f22 (f27 f30 ?v1) ?v2)) (f22 (f27 f30 (f22 ?v_0 ?v1)) ?v2)))))
(assert (forall ((?v0 S4) (?v1 S4) (?v2 S4)) (let ((?v_1 (f9 f10 ?v0)) (?v_0 (f9 f10 ?v1))) (= (f8 ?v_1 (f8 ?v_0 ?v2)) (f8 ?v_0 (f8 ?v_1 ?v2))))))
(assert (forall ((?v0 S4) (?v1 S4) (?v2 S4)) (let ((?v_1 (f9 f10 ?v0)) (?v_0 (f9 f10 ?v1))) (= (f8 ?v_1 (f8 ?v_0 ?v2)) (f8 ?v_0 (f8 ?v_1 ?v2))))))
(assert (forall ((?v0 S3) (?v1 S3) (?v2 S3)) (let ((?v_1 (f27 f30 ?v0)) (?v_0 (f27 f30 ?v1))) (= (f22 ?v_1 (f22 ?v_0 ?v2)) (f22 ?v_0 (f22 ?v_1 ?v2))))))
(assert (forall ((?v0 S4)) (= (f8 (f9 f10 ?v0) (f8 f15 f18)) ?v0)))
(assert (forall ((?v0 S4) (?v1 S4)) (= (f8 (f9 f10 ?v0) ?v1) (f8 (f9 f10 ?v1) ?v0))))
(assert (forall ((?v0 S4) (?v1 S4)) (= (f8 (f9 f10 ?v0) ?v1) (f8 (f9 f10 ?v1) ?v0))))
(assert (forall ((?v0 S3) (?v1 S3)) (= (f22 (f27 f30 ?v0) ?v1) (f22 (f27 f30 ?v1) ?v0))))
(assert (forall ((?v0 S4)) (= (f8 (f9 f10 ?v0) f18) ?v0)))
(assert (forall ((?v0 S4)) (= (= f18 (f8 f16 ?v0)) (= f18 ?v0))))
(assert (forall ((?v0 S4)) (= (= f18 (f8 f17 ?v0)) false)))
(assert (forall ((?v0 S4)) (= (f8 (f9 f10 f18) ?v0) ?v0)))
(assert (= (= f18 f18) true))
(assert (forall ((?v0 S4) (?v1 S4)) (= (f8 f15 (f8 (f9 f10 ?v0) ?v1)) (f8 (f9 f10 (f8 f15 ?v0)) (f8 f15 ?v1)))))
(assert (forall ((?v0 S4)) (= (f8 f16 ?v0) (f8 (f9 f10 ?v0) ?v0))))
(assert (forall ((?v0 S4)) (= (f8 f15 ?v0) ?v0)))
(assert (= (f8 f16 f18) f18))
(assert (forall ((?v0 S4)) (let ((?v_0 (f8 f15 ?v0))) (= (f8 f15 (f8 f16 ?v0)) (f8 (f9 f10 (f8 (f9 f10 f24) ?v_0)) ?v_0)))))
(assert (forall ((?v0 S4)) (let ((?v_0 (f8 f15 ?v0))) (= (f8 f15 (f8 f17 ?v0)) (f8 (f9 f10 (f8 (f9 f10 f11) ?v_0)) ?v_0)))))
(assert (forall ((?v0 S4)) (= (f8 (f9 f14 (f8 f15 (f8 f17 f18))) ?v0) ?v0)))
(assert (forall ((?v0 S4)) (= (f8 (f9 f14 ?v0) (f8 f15 (f8 f17 f18))) ?v0)))
(assert (= (f8 f15 (f8 f17 f18)) f11))
(assert (= (f32 f33 (f8 f17 f18)) f25))
(assert (= (f8 f15 (f8 f17 f18)) f11))
(assert (forall ((?v0 S3) (?v1 S3)) (= (f12 f13 (f22 (f27 f30 ?v0) ?v1)) (f8 (f9 f10 (f12 f13 ?v0)) (f12 f13 ?v1)))))
(assert (forall ((?v0 S3) (?v1 S3)) (= (f22 f23 (f22 (f27 f30 ?v0) ?v1)) (f22 (f27 f30 (f22 f23 ?v0)) (f22 f23 ?v1)))))
(assert (forall ((?v0 S4) (?v1 S4) (?v2 S4)) (let ((?v_0 (f8 f15 ?v2))) (= (f8 (f9 f14 (f8 (f9 f10 ?v0) ?v1)) ?v_0) (f8 (f9 f10 (f8 (f9 f14 ?v0) ?v_0)) (f8 (f9 f14 ?v1) ?v_0))))))
(assert (forall ((?v0 S3) (?v1 S3) (?v2 S4)) (let ((?v_0 (f32 f33 ?v2))) (= (f22 (f27 f28 (f22 (f27 f30 ?v0) ?v1)) ?v_0) (f22 (f27 f30 (f22 (f27 f28 ?v0) ?v_0)) (f22 (f27 f28 ?v1) ?v_0))))))
(assert (forall ((?v0 S4) (?v1 S4) (?v2 S4)) (let ((?v_0 (f9 f14 (f8 f15 ?v0)))) (= (f8 ?v_0 (f8 (f9 f10 ?v1) ?v2)) (f8 (f9 f10 (f8 ?v_0 ?v1)) (f8 ?v_0 ?v2))))))
(assert (forall ((?v0 S4) (?v1 S3) (?v2 S3)) (let ((?v_0 (f27 f28 (f32 f33 ?v0)))) (= (f22 ?v_0 (f22 (f27 f30 ?v1) ?v2)) (f22 (f27 f30 (f22 ?v_0 ?v1)) (f22 ?v_0 ?v2))))))
(assert (= (f8 f15 f18) f24))
(assert (= (f32 f33 f18) f5))
(assert (= (f8 f15 f18) f24))
(assert (forall ((?v0 S3)) (= (f22 (f27 f30 f5) ?v0) ?v0)))
(assert (forall ((?v0 S3)) (= (f22 (f27 f30 ?v0) f5) ?v0)))
(assert (forall ((?v0 S3) (?v1 S3)) (= (= (f22 (f27 f30 ?v0) ?v1) f5) (and (= ?v0 f5) (= ?v1 f5)))))
(assert (forall ((?v0 S3) (?v1 S3)) (=> (= (f22 (f27 f30 ?v0) ?v1) ?v0) (= ?v1 f5))))
(assert (forall ((?v0 S3) (?v1 S3)) (not (= (f3 (f4 (f22 (f27 f30 ?v0) ?v1)) ?v0) f1))))
(assert (forall ((?v0 S3) (?v1 S3)) (not (= (f3 (f4 (f22 (f27 f30 ?v0) ?v1)) ?v1) f1))))
(assert (forall ((?v0 S3) (?v1 S3) (?v2 S3)) (let ((?v_0 (f27 f30 ?v0))) (= (= (f3 (f4 (f22 ?v_0 ?v1)) (f22 ?v_0 ?v2)) f1) (= (f3 (f4 ?v1) ?v2) f1)))))
(assert (forall ((?v0 S3) (?v1 S3) (?v2 S3)) (let ((?v_0 (f4 ?v0))) (=> (= (f3 ?v_0 ?v1) f1) (= (f3 ?v_0 (f22 (f27 f30 ?v1) ?v2)) f1)))))
(assert (forall ((?v0 S3) (?v1 S3) (?v2 S3)) (let ((?v_0 (f4 ?v0))) (=> (= (f3 ?v_0 ?v1) f1) (= (f3 ?v_0 (f22 (f27 f30 ?v2) ?v1)) f1)))))
(assert (forall ((?v0 S3) (?v1 S3) (?v2 S3)) (=> (= (f3 (f4 ?v0) ?v1) f1) (= (f3 (f4 (f22 (f27 f30 ?v0) ?v2)) (f22 (f27 f30 ?v1) ?v2)) f1))))
(assert (forall ((?v0 S3) (?v1 S3) (?v2 S3) (?v3 S3)) (=> (= (f3 (f4 ?v0) ?v1) f1) (=> (= (f3 (f4 ?v2) ?v3) f1) (= (f3 (f4 (f22 (f27 f30 ?v0) ?v2)) (f22 (f27 f30 ?v1) ?v3)) f1)))))
(assert (forall ((?v0 S3) (?v1 S3) (?v2 S3) (?v3 S3)) (=> (= (f3 (f4 ?v0) ?v1) f1) (=> (= (f22 (f27 f30 ?v2) ?v1) (f22 (f27 f30 ?v0) ?v3)) (= (f3 (f4 ?v2) ?v3) f1)))))
(assert (forall ((?v0 S3) (?v1 S3) (?v2 S3)) (=> (= (f3 (f4 (f22 (f27 f30 ?v0) ?v1)) ?v2) f1) (= (f3 (f4 ?v0) ?v2) f1))))
(assert (forall ((?v0 S4) (?v1 S4)) (= (= (f7 (f8 f15 ?v0) (f8 f15 ?v1)) f1) (= (f7 ?v0 ?v1) f1))))
(assert (forall ((?v0 S4)) (= (f8 (f9 f10 f24) ?v0) ?v0)))
(assert (forall ((?v0 S3)) (= (f22 (f27 f30 f5) ?v0) ?v0)))
(assert (forall ((?v0 S4)) (= (f8 (f9 f10 f24) ?v0) ?v0)))
(assert (forall ((?v0 S3)) (= (f22 (f27 f30 f5) ?v0) ?v0)))
(assert (forall ((?v0 S4)) (= (f8 (f9 f10 f24) ?v0) ?v0)))
(assert (forall ((?v0 S3)) (= (f22 (f27 f30 f5) ?v0) ?v0)))
(assert (forall ((?v0 S4)) (= (= f24 (f8 (f9 f10 ?v0) ?v0)) (= ?v0 f24))))
(assert (forall ((?v0 S4)) (= (f8 (f9 f10 ?v0) f24) ?v0)))
(assert (forall ((?v0 S3)) (= (f22 (f27 f30 ?v0) f5) ?v0)))
(assert (forall ((?v0 S4)) (= (f8 (f9 f10 ?v0) f24) ?v0)))
(assert (forall ((?v0 S3)) (= (f22 (f27 f30 ?v0) f5) ?v0)))
(assert (forall ((?v0 S4)) (= (f8 (f9 f10 ?v0) f24) ?v0)))
(assert (forall ((?v0 S3)) (= (f22 (f27 f30 ?v0) f5) ?v0)))
(assert (forall ((?v0 S4) (?v1 S4)) (= (= ?v0 (f8 (f9 f10 ?v0) ?v1)) (= ?v1 f24))))
(assert (forall ((?v0 S3) (?v1 S3)) (= (= ?v0 (f22 (f27 f30 ?v0) ?v1)) (= ?v1 f5))))
(assert (forall ((?v0 S4)) (= (= (f8 (f9 f10 ?v0) ?v0) f24) (= ?v0 f24))))
(assert (forall ((?v0 S4) (?v1 S4) (?v2 S4)) (= (f8 (f9 f14 (f8 f15 ?v0)) (f8 (f9 f14 (f8 f15 ?v1)) ?v2)) (f8 (f9 f14 (f8 f15 (f8 (f9 f14 ?v0) ?v1))) ?v2))))
(assert (forall ((?v0 S4) (?v1 S4)) (= (f8 (f9 f14 (f8 f15 ?v0)) (f8 f15 ?v1)) (f8 f15 (f8 (f9 f14 ?v0) ?v1)))))
(assert (forall ((?v0 S4) (?v1 S4)) (= (f8 f15 (f8 (f9 f14 ?v0) ?v1)) (f8 (f9 f14 (f8 f15 ?v0)) (f8 f15 ?v1)))))
(assert (forall ((?v0 S4) (?v1 S4) (?v2 S4)) (= (= (f7 (f8 (f9 f10 ?v0) ?v1) (f8 (f9 f10 ?v2) ?v1)) f1) (= (f7 ?v0 ?v2) f1))))
(assert (forall ((?v0 S3) (?v1 S3) (?v2 S3)) (= (= (f3 (f4 (f22 (f27 f30 ?v0) ?v1)) (f22 (f27 f30 ?v2) ?v1)) f1) (= (f3 (f4 ?v0) ?v2) f1))))
(assert (forall ((?v0 S4) (?v1 S4) (?v2 S4)) (let ((?v_0 (f9 f10 ?v0))) (= (= (f7 (f8 ?v_0 ?v1) (f8 ?v_0 ?v2)) f1) (= (f7 ?v1 ?v2) f1)))))
(assert (forall ((?v0 S3) (?v1 S3) (?v2 S3)) (let ((?v_0 (f27 f30 ?v0))) (= (= (f3 (f4 (f22 ?v_0 ?v1)) (f22 ?v_0 ?v2)) f1) (= (f3 (f4 ?v1) ?v2) f1)))))
(assert (forall ((?v0 S4) (?v1 S4) (?v2 S4)) (=> (= (f7 ?v0 ?v1) f1) (= (f7 (f8 (f9 f10 ?v0) ?v2) (f8 (f9 f10 ?v1) ?v2)) f1))))
(assert (forall ((?v0 S3) (?v1 S3) (?v2 S3)) (=> (= (f3 (f4 ?v0) ?v1) f1) (= (f3 (f4 (f22 (f27 f30 ?v0) ?v2)) (f22 (f27 f30 ?v1) ?v2)) f1))))
(assert (forall ((?v0 S4) (?v1 S4) (?v2 S4)) (let ((?v_0 (f9 f10 ?v2))) (=> (= (f7 ?v0 ?v1) f1) (= (f7 (f8 ?v_0 ?v0) (f8 ?v_0 ?v1)) f1)))))
(assert (forall ((?v0 S3) (?v1 S3) (?v2 S3)) (let ((?v_0 (f27 f30 ?v2))) (=> (= (f3 (f4 ?v0) ?v1) f1) (= (f3 (f4 (f22 ?v_0 ?v0)) (f22 ?v_0 ?v1)) f1)))))
(assert (forall ((?v0 S4) (?v1 S4) (?v2 S4) (?v3 S4)) (=> (= (f7 ?v0 ?v1) f1) (=> (= (f7 ?v2 ?v3) f1) (= (f7 (f8 (f9 f10 ?v0) ?v2) (f8 (f9 f10 ?v1) ?v3)) f1)))))
(assert (forall ((?v0 S3) (?v1 S3) (?v2 S3) (?v3 S3)) (=> (= (f3 (f4 ?v0) ?v1) f1) (=> (= (f3 (f4 ?v2) ?v3) f1) (= (f3 (f4 (f22 (f27 f30 ?v0) ?v2)) (f22 (f27 f30 ?v1) ?v3)) f1)))))
(assert (forall ((?v0 S4) (?v1 S4) (?v2 S4)) (=> (= (f7 (f8 (f9 f10 ?v0) ?v1) (f8 (f9 f10 ?v2) ?v1)) f1) (= (f7 ?v0 ?v2) f1))))
(assert (forall ((?v0 S3) (?v1 S3) (?v2 S3)) (=> (= (f3 (f4 (f22 (f27 f30 ?v0) ?v1)) (f22 (f27 f30 ?v2) ?v1)) f1) (= (f3 (f4 ?v0) ?v2) f1))))
(assert (forall ((?v0 S4) (?v1 S4) (?v2 S4)) (let ((?v_0 (f9 f10 ?v0))) (=> (= (f7 (f8 ?v_0 ?v1) (f8 ?v_0 ?v2)) f1) (= (f7 ?v1 ?v2) f1)))))
(assert (forall ((?v0 S3) (?v1 S3) (?v2 S3)) (let ((?v_0 (f27 f30 ?v0))) (=> (= (f3 (f4 (f22 ?v_0 ?v1)) (f22 ?v_0 ?v2)) f1) (= (f3 (f4 ?v1) ?v2) f1)))))
(assert (forall ((?v0 S4) (?v1 S4) (?v2 S4) (?v3 S4)) (let ((?v_0 (f9 f14 ?v0)) (?v_1 (f9 f14 ?v2))) (= (= (f8 (f9 f10 (f8 ?v_0 ?v1)) (f8 ?v_1 ?v3)) (f8 (f9 f10 (f8 ?v_0 ?v3)) (f8 ?v_1 ?v1))) (or (= ?v0 ?v2) (= ?v1 ?v3))))))
(assert (forall ((?v0 S3) (?v1 S3) (?v2 S3) (?v3 S3)) (let ((?v_0 (f27 f28 ?v0)) (?v_1 (f27 f28 ?v2))) (= (= (f22 (f27 f30 (f22 ?v_0 ?v1)) (f22 ?v_1 ?v3)) (f22 (f27 f30 (f22 ?v_0 ?v3)) (f22 ?v_1 ?v1))) (or (= ?v0 ?v2) (= ?v1 ?v3))))))
(assert (forall ((?v0 S4) (?v1 S4) (?v2 S4)) (= (f8 (f9 f10 (f8 (f9 f14 ?v0) ?v1)) (f8 (f9 f14 ?v2) ?v1)) (f8 (f9 f14 (f8 (f9 f10 ?v0) ?v2)) ?v1))))
(assert (forall ((?v0 S3) (?v1 S3) (?v2 S3)) (= (f22 (f27 f30 (f22 (f27 f28 ?v0) ?v1)) (f22 (f27 f28 ?v2) ?v1)) (f22 (f27 f28 (f22 (f27 f30 ?v0) ?v2)) ?v1))))
(assert (forall ((?v0 S4) (?v1 S4) (?v2 S4)) (= (f8 (f9 f14 (f8 (f9 f10 ?v0) ?v1)) ?v2) (f8 (f9 f10 (f8 (f9 f14 ?v0) ?v2)) (f8 (f9 f14 ?v1) ?v2)))))
(assert (forall ((?v0 S3) (?v1 S3) (?v2 S3)) (= (f22 (f27 f28 (f22 (f27 f30 ?v0) ?v1)) ?v2) (f22 (f27 f30 (f22 (f27 f28 ?v0) ?v2)) (f22 (f27 f28 ?v1) ?v2)))))
(assert (forall ((?v0 S4) (?v1 S4) (?v2 S4) (?v3 S4)) (let ((?v_0 (f9 f14 ?v0)) (?v_1 (f9 f14 ?v1))) (= (and (not (= ?v0 ?v1)) (not (= ?v2 ?v3))) (not (= (f8 (f9 f10 (f8 ?v_0 ?v2)) (f8 ?v_1 ?v3)) (f8 (f9 f10 (f8 ?v_0 ?v3)) (f8 ?v_1 ?v2))))))))
(assert (forall ((?v0 S3) (?v1 S3) (?v2 S3) (?v3 S3)) (let ((?v_0 (f27 f28 ?v0)) (?v_1 (f27 f28 ?v1))) (= (and (not (= ?v0 ?v1)) (not (= ?v2 ?v3))) (not (= (f22 (f27 f30 (f22 ?v_0 ?v2)) (f22 ?v_1 ?v3)) (f22 (f27 f30 (f22 ?v_0 ?v3)) (f22 ?v_1 ?v2))))))))
(assert (forall ((?v0 S4) (?v1 S4) (?v2 S4)) (let ((?v_0 (f9 f14 ?v0))) (= (f8 ?v_0 (f8 (f9 f10 ?v1) ?v2)) (f8 (f9 f10 (f8 ?v_0 ?v1)) (f8 ?v_0 ?v2))))))
(assert (forall ((?v0 S3) (?v1 S3) (?v2 S3)) (let ((?v_0 (f27 f28 ?v0))) (= (f22 ?v_0 (f22 (f27 f30 ?v1) ?v2)) (f22 (f27 f30 (f22 ?v_0 ?v1)) (f22 ?v_0 ?v2))))))
(assert (forall ((?v0 S4)) (= (f8 (f9 f14 (f8 (f9 f10 f11) f11)) (f8 f15 ?v0)) (f8 f15 (f8 f16 ?v0)))))
(assert (forall ((?v0 S4)) (= (= (f7 f11 (f8 f15 ?v0)) f1) (= (f7 (f8 f17 f18) ?v0) f1))))
(assert (forall ((?v0 S4)) (= (= (f7 (f8 f15 ?v0) f11) f1) (= (f7 ?v0 (f8 f17 f18)) f1))))
(assert (forall ((?v0 S3)) (= (f32 f33 (f12 f13 ?v0)) (f22 f23 ?v0))))
(assert (forall ((?v0 S3)) (let ((?v_0 (f12 f13 ?v0))) (= (f8 f15 ?v_0) ?v_0))))
(assert (forall ((?v0 S3) (?v1 S3)) (let ((?v_0 (f4 f5))) (= (= (f3 ?v_0 (f22 (f27 f30 ?v0) ?v1)) f1) (or (= (f3 ?v_0 ?v0) f1) (= (f3 ?v_0 ?v1) f1))))))
(assert (forall ((?v0 S4)) (= (= (f7 f24 (f8 f15 ?v0)) f1) (= (f7 f18 ?v0) f1))))
(assert (forall ((?v0 S4)) (= (= (f7 (f8 f15 ?v0) f24) f1) (= (f7 ?v0 f18) f1))))
(assert (forall ((?v0 S4) (?v1 S4)) (=> (= (f20 ?v0) f1) (=> (= (f20 ?v1) f1) (= (f20 (f8 (f9 f14 ?v0) ?v1)) f1)))))
(assert (forall ((?v0 S3)) (= (= f5 ?v0) (= ?v0 f5))))
(assert (forall ((?v0 S4)) (= (= f24 ?v0) (= ?v0 f24))))
(assert (forall ((?v0 S4) (?v1 S4) (?v2 S4) (?v3 S4)) (let ((?v_0 (f9 f14 ?v0))) (= (f8 (f9 f14 (f8 ?v_0 ?v1)) (f8 (f9 f14 ?v2) ?v3)) (f8 (f9 f14 (f8 ?v_0 ?v2)) (f8 (f9 f14 ?v1) ?v3))))))
(assert (forall ((?v0 S3) (?v1 S3) (?v2 S3) (?v3 S3)) (let ((?v_0 (f27 f28 ?v0))) (= (f22 (f27 f28 (f22 ?v_0 ?v1)) (f22 (f27 f28 ?v2) ?v3)) (f22 (f27 f28 (f22 ?v_0 ?v2)) (f22 (f27 f28 ?v1) ?v3))))))
(assert (forall ((?v0 S4) (?v1 S4) (?v2 S4) (?v3 S4)) (let ((?v_1 (f9 f14 (f8 (f9 f14 ?v0) ?v1))) (?v_0 (f9 f14 ?v2))) (= (f8 ?v_1 (f8 ?v_0 ?v3)) (f8 ?v_0 (f8 ?v_1 ?v3))))))
(assert (forall ((?v0 S3) (?v1 S3) (?v2 S3) (?v3 S3)) (let ((?v_1 (f27 f28 (f22 (f27 f28 ?v0) ?v1))) (?v_0 (f27 f28 ?v2))) (= (f22 ?v_1 (f22 ?v_0 ?v3)) (f22 ?v_0 (f22 ?v_1 ?v3))))))
(assert (forall ((?v0 S4) (?v1 S4) (?v2 S4) (?v3 S4)) (let ((?v_0 (f9 f14 ?v0)) (?v_1 (f8 (f9 f14 ?v2) ?v3))) (= (f8 (f9 f14 (f8 ?v_0 ?v1)) ?v_1) (f8 ?v_0 (f8 (f9 f14 ?v1) ?v_1))))))
(assert (forall ((?v0 S3) (?v1 S3) (?v2 S3) (?v3 S3)) (let ((?v_0 (f27 f28 ?v0)) (?v_1 (f22 (f27 f28 ?v2) ?v3))) (= (f22 (f27 f28 (f22 ?v_0 ?v1)) ?v_1) (f22 ?v_0 (f22 (f27 f28 ?v1) ?v_1))))))
(assert (forall ((?v0 S4) (?v1 S4) (?v2 S4)) (let ((?v_0 (f9 f14 ?v0))) (= (f8 (f9 f14 (f8 ?v_0 ?v1)) ?v2) (f8 (f9 f14 (f8 ?v_0 ?v2)) ?v1)))))
(assert (forall ((?v0 S3) (?v1 S3) (?v2 S3)) (let ((?v_0 (f27 f28 ?v0))) (= (f22 (f27 f28 (f22 ?v_0 ?v1)) ?v2) (f22 (f27 f28 (f22 ?v_0 ?v2)) ?v1)))))
(assert (forall ((?v0 S4) (?v1 S4) (?v2 S4)) (let ((?v_0 (f9 f14 ?v0))) (= (f8 (f9 f14 (f8 ?v_0 ?v1)) ?v2) (f8 ?v_0 (f8 (f9 f14 ?v1) ?v2))))))
(assert (forall ((?v0 S3) (?v1 S3) (?v2 S3)) (let ((?v_0 (f27 f28 ?v0))) (= (f22 (f27 f28 (f22 ?v_0 ?v1)) ?v2) (f22 ?v_0 (f22 (f27 f28 ?v1) ?v2))))))
(assert (forall ((?v0 S4) (?v1 S4) (?v2 S4)) (let ((?v_0 (f9 f14 ?v0))) (= (f8 (f9 f14 (f8 ?v_0 ?v1)) ?v2) (f8 ?v_0 (f8 (f9 f14 ?v1) ?v2))))))
(assert (forall ((?v0 S3) (?v1 S3) (?v2 S3)) (let ((?v_0 (f27 f28 ?v0))) (= (f22 (f27 f28 (f22 ?v_0 ?v1)) ?v2) (f22 ?v_0 (f22 (f27 f28 ?v1) ?v2))))))
(assert (forall ((?v0 S4) (?v1 S4) (?v2 S4)) (let ((?v_0 (f9 f14 ?v0))) (= (f8 ?v_0 (f8 (f9 f14 ?v1) ?v2)) (f8 (f9 f14 (f8 ?v_0 ?v1)) ?v2)))))
(assert (forall ((?v0 S3) (?v1 S3) (?v2 S3)) (let ((?v_0 (f27 f28 ?v0))) (= (f22 ?v_0 (f22 (f27 f28 ?v1) ?v2)) (f22 (f27 f28 (f22 ?v_0 ?v1)) ?v2)))))
(assert (forall ((?v0 S4) (?v1 S4) (?v2 S4)) (let ((?v_1 (f9 f14 ?v0)) (?v_0 (f9 f14 ?v1))) (= (f8 ?v_1 (f8 ?v_0 ?v2)) (f8 ?v_0 (f8 ?v_1 ?v2))))))
(assert (forall ((?v0 S3) (?v1 S3) (?v2 S3)) (let ((?v_1 (f27 f28 ?v0)) (?v_0 (f27 f28 ?v1))) (= (f22 ?v_1 (f22 ?v_0 ?v2)) (f22 ?v_0 (f22 ?v_1 ?v2))))))
(check-sat)
(exit)
